
Gurobi 7.5.1 (win64, Python) logging started 11/19/17 23:35:03

Academic license - for non-commercial use only

Gurobi 7.5.2 (linux64, Python) logging started Mon Nov 20 15:44:43 2017

Academic license - for non-commercial use only

Gurobi 7.5.2 (linux64, Python) logging started Fri Dec  1 12:44:54 2017


Gurobi 7.5.2 (linux64, Python) logging started Fri Dec  1 12:49:18 2017


Gurobi 7.5.2 (linux64, Python) logging started Fri Dec  1 12:57:57 2017


Gurobi 7.5.2 (linux64, Python) logging started Fri Dec  1 13:01:44 2017


Gurobi 7.5.2 (linux64, Python) logging started Fri Dec  1 13:12:20 2017


Gurobi 7.5.2 (linux64, Python) logging started Fri Dec  1 13:19:08 2017


Gurobi 7.5.2 (linux64, Python) logging started Fri Dec  1 13:23:56 2017


Gurobi 7.5.1 (win64, Python) logging started 12/03/17 12:26:16

Academic license - for non-commercial use only

Gurobi 7.5.1 (win64, Python) logging started 12/03/17 15:25:10

Academic license - for non-commercial use only

Gurobi 7.5.2 (linux64, Python) logging started Sun Dec  3 15:42:16 2017


Gurobi 7.5.2 (linux64, Python) logging started Sun Dec  3 15:45:59 2017

